W=6;
H=5;

MAX_TIME=17;
MAX_TRACKS=11;

TARGET=(3,6);

TRAINS=[(1,4,LEFT),(3,1,RIGHT),(5,5,LEFT)];
DECOYS=[];

INIT_POS=[
(1,4,STRAIGHT_RL),
(3,1,STRAIGHT_RL),
(3,6,STRAIGHT_RL),
(5,3,CORNER_TR),
(5,4,STRAIGHT_RL),
(5,5,STRAIGHT_RL),
];
TUNNEL_PAIRS=[];

GATES=[];
ACTIVATIONS=[];

DSWITCHES=[];

STATIONS=[
  (5,4,2),
];
